;; Preprocessed for Astral solver
(set-info :status unsat)
;; variables
(declare-const x0 Loc)
(declare-const x1 Loc)
(declare-const x2 Loc)
(declare-const x3 Loc)
(declare-const x4 Loc)
(declare-const x5 Loc)
(declare-const x6 Loc)
(declare-const x7 Loc)
(declare-const x8 Loc)
(declare-const x9 Loc)
(declare-const x10 Loc)
(declare-const x11 Loc)
(declare-const x12 Loc)
(declare-const x13 Loc)
(declare-const x14 Loc)
(declare-const x15 Loc)
(declare-const x16 Loc)
(declare-const x17 Loc)
(declare-const x18 Loc)

(assert 
		(sep 
			(= nil nil)
			(distinct x8 x11)
			(distinct x1 x2)
			(distinct x4 x10)
			(distinct x7 x9)
			(distinct x7 x10)
			(distinct x9 x13)
			(distinct x9 x12)
			(distinct x5 x8)
			(distinct x5 x9)
		(sep 
			(ls x13 x14 )
			(ls x13 x12 )
			(ls x10 x12 )
			(ls x1 x2 )
			(ls x1 x10 )
			(ls x1 x4 )
			(ls x8 x3 )
			(ls x2 x13 )
			(ls x12 x8 )
			(ls x9 x12 )
			(ls x11 x7 )
			(ls x6 x5 )
		)

		)

)

(check-sat)
